clingo version 5.4.0
Reading from merger/Niklas/merge.lp ...
Solving...
Answer: 1
occurs(object(robot,1),action(move,(0,1)),1). occurs(object(robot,1),action(move,(1,0)),2). occurs(object(robot,1),action(move,(1,0)),3). occurs(object(robot,2),action(move,(0,1)),1). occurs(object(robot,2),action(move,(-1,0)),2). occurs(object(robot,1),action(move,(1,0)),5). occurs(object(robot,1),action(move,(1,0)),6). occurs(object(robot,1),action(move,(1,0)),7). occurs(object(robot,1),action(move,(1,0)),8). occurs(object(robot,1),action(move,(0,0)),9). occurs(object(robot,1),action(move,(0,0)),10). occurs(object(robot,1),action(move,(0,0)),11). occurs(object(robot,1),action(move,(0,0)),12). occurs(object(robot,1),action(move,(0,0)),13). occurs(object(robot,1),action(move,(0,0)),14). occurs(object(robot,1),action(move,(0,0)),15). occurs(object(robot,1),action(move,(0,0)),16). occurs(object(robot,2),action(move,(0,0)),6). occurs(object(robot,2),action(move,(0,0)),7). occurs(object(robot,2),action(move,(0,0)),9). occurs(object(robot,2),action(move,(-1,0)),10). occurs(object(robot,2),action(move,(-1,0)),11). occurs(object(robot,2),action(move,(-1,0)),12). occurs(object(robot,2),action(move,(-1,0)),13). occurs(object(robot,2),action(move,(-1,0)),14). occurs(object(robot,2),action(move,(-1,0)),15). occurs(object(robot,2),action(move,(-1,0)),16). occurs(object(robot,1),action(move,(1,0)),4). occurs(object(robot,2),action(move,(1,0)),3). occurs(object(robot,2),action(move,(0,0)),4). occurs(object(robot,2),action(move,(0,-1)),5). occurs(object(robot,2),action(move,(0,1)),8).
Optimization: 11
Answer: 2
occurs(object(robot,1),action(move,(0,1)),1). occurs(object(robot,1),action(move,(1,0)),2). occurs(object(robot,1),action(move,(1,0)),3). occurs(object(robot,2),action(move,(0,1)),1). occurs(object(robot,2),action(move,(-1,0)),2). occurs(object(robot,1),action(move,(1,0)),5). occurs(object(robot,1),action(move,(1,0)),6). occurs(object(robot,1),action(move,(1,0)),7). occurs(object(robot,1),action(move,(1,0)),8). occurs(object(robot,1),action(move,(0,0)),9). occurs(object(robot,1),action(move,(0,0)),10). occurs(object(robot,1),action(move,(0,0)),11). occurs(object(robot,1),action(move,(0,0)),12). occurs(object(robot,1),action(move,(0,0)),13). occurs(object(robot,1),action(move,(0,0)),14). occurs(object(robot,1),action(move,(0,0)),15). occurs(object(robot,1),action(move,(0,0)),16). occurs(object(robot,2),action(move,(0,0)),6). occurs(object(robot,2),action(move,(0,0)),7). occurs(object(robot,2),action(move,(0,0)),9). occurs(object(robot,2),action(move,(-1,0)),10). occurs(object(robot,2),action(move,(-1,0)),11). occurs(object(robot,2),action(move,(-1,0)),12). occurs(object(robot,2),action(move,(-1,0)),13). occurs(object(robot,2),action(move,(-1,0)),14). occurs(object(robot,2),action(move,(-1,0)),15). occurs(object(robot,2),action(move,(-1,0)),16). occurs(object(robot,1),action(move,(1,0)),4). occurs(object(robot,2),action(move,(1,0)),3). occurs(object(robot,2),action(move,(0,0)),5). occurs(object(robot,2),action(move,(0,-1)),4). occurs(object(robot,2),action(move,(0,1)),8).
Optimization: 10
Answer: 3
occurs(object(robot,1),action(move,(0,1)),1). occurs(object(robot,1),action(move,(1,0)),2). occurs(object(robot,1),action(move,(1,0)),3). occurs(object(robot,2),action(move,(0,1)),1). occurs(object(robot,2),action(move,(-1,0)),2). occurs(object(robot,1),action(move,(1,0)),5). occurs(object(robot,1),action(move,(1,0)),6). occurs(object(robot,1),action(move,(1,0)),7). occurs(object(robot,1),action(move,(1,0)),8). occurs(object(robot,1),action(move,(0,0)),9). occurs(object(robot,1),action(move,(0,0)),10). occurs(object(robot,1),action(move,(0,0)),11). occurs(object(robot,1),action(move,(0,0)),12). occurs(object(robot,1),action(move,(0,0)),13). occurs(object(robot,1),action(move,(0,0)),14). occurs(object(robot,1),action(move,(0,0)),15). occurs(object(robot,1),action(move,(0,0)),16). occurs(object(robot,2),action(move,(0,0)),6). occurs(object(robot,2),action(move,(0,0)),7). occurs(object(robot,2),action(move,(-1,0)),9). occurs(object(robot,2),action(move,(-1,0)),10). occurs(object(robot,2),action(move,(-1,0)),11). occurs(object(robot,2),action(move,(-1,0)),12). occurs(object(robot,2),action(move,(-1,0)),13). occurs(object(robot,2),action(move,(-1,0)),14). occurs(object(robot,2),action(move,(-1,0)),15). occurs(object(robot,2),action(move,(0,0)),16). occurs(object(robot,1),action(move,(1,0)),4). occurs(object(robot,2),action(move,(1,0)),3). occurs(object(robot,2),action(move,(0,0)),4). occurs(object(robot,2),action(move,(0,-1)),5). occurs(object(robot,2),action(move,(0,1)),8).
Optimization: 9
Answer: 4
occurs(object(robot,1),action(move,(0,1)),1). occurs(object(robot,1),action(move,(1,0)),2). occurs(object(robot,1),action(move,(1,0)),3). occurs(object(robot,2),action(move,(0,1)),1). occurs(object(robot,2),action(move,(-1,0)),2). occurs(object(robot,2),action(move,(-1,0)),3). occurs(object(robot,1),action(move,(1,0)),5). occurs(object(robot,1),action(move,(1,0)),6). occurs(object(robot,1),action(move,(1,0)),7). occurs(object(robot,1),action(move,(1,0)),8). occurs(object(robot,1),action(move,(0,0)),9). occurs(object(robot,1),action(move,(0,0)),10). occurs(object(robot,1),action(move,(0,0)),11). occurs(object(robot,1),action(move,(0,0)),12). occurs(object(robot,1),action(move,(0,0)),13). occurs(object(robot,1),action(move,(0,0)),14). occurs(object(robot,1),action(move,(0,0)),15). occurs(object(robot,1),action(move,(0,0)),16). occurs(object(robot,2),action(move,(0,0)),7). occurs(object(robot,2),action(move,(-1,0)),9). occurs(object(robot,2),action(move,(-1,0)),10). occurs(object(robot,2),action(move,(-1,0)),11). occurs(object(robot,2),action(move,(-1,0)),12). occurs(object(robot,2),action(move,(-1,0)),13). occurs(object(robot,2),action(move,(-1,0)),14). occurs(object(robot,2),action(move,(-1,0)),15). occurs(object(robot,2),action(move,(0,0)),16). occurs(object(robot,1),action(move,(1,0)),4). occurs(object(robot,2),action(move,(1,0)),4). occurs(object(robot,2),action(move,(1,0)),5). occurs(object(robot,2),action(move,(0,-1)),6). occurs(object(robot,2),action(move,(0,1)),8).
Optimization: 8
OPTIMUM FOUND

Models       : 4
  Optimum    : yes
Optimization : 8
Calls        : 1
Time         : 0.086s (Solving: 0.04s 1st Model: 0.01s Unsat: 0.04s)
CPU Time     : 0.084s
